instances/tuning-use-case-1/oven_scheduling.minizinc_instance_0112-17.51.22.dzn
l=371;
a=2;
setup_costs=[|1,3,
|3,0,
|0,0|];
setup_times=[|2,3,
|3,0,
|0,0|];
m=5;
min_cap=[0,0,0,0,0];
max_cap=[8,17,10,9,7];

initState=[2,2,2,1,2];
s=5;
m_a_s = [|0,0,97,264,315,
|37,131,238,273,361,
|97,170,185,215,351,
|0,248,264,291,314,
|0,0,0,143,317|];
m_a_e = [|0,0,216,281,332,
|77,180,261,318,369,
|163,185,209,331,369,
|0,255,277,309,357,
|0,0,0,298,362|];
n=10;
eligible_machine = [{3,4,5},
{3,1,2,4,5},
{4,3},
{5,1,2},
{5,1,2,3},
{1,2,3,4,5},
{3,1,4,5},
{4,2,3,5},
{2,1,4},
{3,1,2,4,5}];
earliest_start=[5,6,27,16,2,11,21,26,0,2];
latest_end=[12,15,37,27,9,22,24,35,5,15];
min_time=[5,5,6,7,5,7,2,5,5,9];
max_time=[9,9,10,8,10,8,8,10,6,9];
size=[2,2,5,1,4,3,5,1,1,2];
attribute=[1,1,1,1,1,2,2,2,1,1];

upper_bound_integer_objective=6300;
mult_factor_total_runtime=4;
mult_factor_finished_toolate=600;
mult_factor_total_setuptimes=0;
mult_factor_total_setupcosts=2;
running_time_bound=56;
min_duration=2;
max_duration=9;
max_setup_time=3;
max_setup_cost=3;
